Total weight: 1105.7759914748012
Route 1: 0 26 12 3 33 50 27 52 96 85 91 44 14 38 86 16 61 98 2 41 22 72 73 40 94 99 93 59 95 13 58 21 74 75 4 0 
Route 2: 0 45 82 48 47 36 64 63 30 65 29 76 69 31 11 49 19 88 7 18 6 97 87 57 43 15 39 67 23 56 25 55 54 24 80 68 77 35 70 1 28 0 
Route 3: 0 92 37 100 42 53 79 78 34 71 81 9 51 20 66 90 32 10 62 8 46 17 84 5 60 83 89 0 
